NAME JobShopModel
ROWS
 N  OBJ
 E  c0      
 E  c1      
 E  c2      
 E  c3      
 L  c4      
 L  c5      
 L  c6      
 L  c7      
 G  c8      
 G  c9      
 G  c10     
 G  c11     
 G  c12     
 G  c13     
 G  c14     
 G  c15     
 G  c16     
 G  c17     
 G  c18     
 G  c19     
 G  c20     
 G  c21     
 G  c22     
 G  c23     
 G  c24     
 G  c25     
 G  c26     
 L  c27     
 G  c28     
 L  c29     
 G  OF_constraint
COLUMNS
    MARKER    'MARKER'                 'INTORG'
    y[0,0,1]  c0        1
    y[0,0,1]  c4        -1000000
    y[0,0,1]  c8        -1000000
    y[0,0,1]  c9        -1000000
    y[0,0,1]  c10       -1000000
    y[0,0,1]  c11       -1000000
    y[0,0,1]  c12       -1000000
    y[0,0,1]  c13       -1000000
    y[0,0,1]  c17       -3
    y[0,0,1]  c26       5
    y[0,0,1]  c27       5
    y[0,1,1]  c1        1
    y[0,1,1]  c5        -1000000
    y[0,1,1]  c8        -1000000
    y[0,1,1]  c9        -1000000
    y[0,1,1]  c12       -1000000
    y[0,1,1]  c13       -1000000
    y[0,1,1]  c14       -1000000
    y[0,1,1]  c15       -1000000
    y[0,1,1]  c19       -3
    y[0,1,1]  c24       -5
    y[1,0,0]  c2        1
    y[1,0,0]  c6        -1000000
    y[1,0,0]  c21       -2
    y[1,0,0]  c28       4
    y[1,0,0]  c29       4
    y[1,1,1]  c3        1
    y[1,1,1]  c7        -1000000
    y[1,1,1]  c10       -1000000
    y[1,1,1]  c11       -1000000
    y[1,1,1]  c14       -1000000
    y[1,1,1]  c15       -1000000
    y[1,1,1]  c25       -5
    x[0,0,0,0]  OBJ       0
    x[0,0,0,1]  c8        -1000000
    x[0,0,0,1]  c9        1000000
    x[0,0,1,0]  OBJ       0
    x[0,0,1,1]  c10       -1000000
    x[0,0,1,1]  c11       1000000
    x[0,1,0,0]  c12       -1000000
    x[0,1,0,0]  c13       1000000
    x[0,1,0,1]  OBJ       0
    x[0,1,1,0]  OBJ       0
    x[0,1,1,1]  c14       -1000000
    x[0,1,1,1]  c15       1000000
    x[1,0,0,0]  OBJ       0
    x[1,0,0,1]  OBJ       0
    x[1,0,1,0]  OBJ       0
    x[1,0,1,1]  OBJ       0
    x[1,1,0,0]  OBJ       0
    x[1,1,0,1]  OBJ       0
    x[1,1,1,0]  OBJ       0
    x[1,1,1,1]  OBJ       0
    MARKER    'MARKER'                 'INTEND'
    s[0,0,1]  c4        1
    s[0,0,1]  c8        1
    s[0,0,1]  c9        -1
    s[0,0,1]  c10       1
    s[0,0,1]  c11       -1
    s[0,0,1]  c12       -1
    s[0,0,1]  c13       1
    s[0,0,1]  c16       1
    s[0,0,1]  c17       1
    s[0,0,1]  c24       1
    s[0,0,1]  c26       1
    s[0,0,1]  c27       1
    s[0,1,1]  c5        1
    s[0,1,1]  c8        -1
    s[0,1,1]  c9        1
    s[0,1,1]  c12       1
    s[0,1,1]  c13       -1
    s[0,1,1]  c14       1
    s[0,1,1]  c15       -1
    s[0,1,1]  c18       1
    s[0,1,1]  c19       1
    s[0,1,1]  c24       -1
    s[1,0,0]  c6        1
    s[1,0,0]  c20       1
    s[1,0,0]  c21       1
    s[1,0,0]  c25       1
    s[1,0,0]  c28       1
    s[1,0,0]  c29       1
    s[1,1,1]  c7        1
    s[1,1,1]  c10       -1
    s[1,1,1]  c11       1
    s[1,1,1]  c14       -1
    s[1,1,1]  c15       1
    s[1,1,1]  c22       1
    s[1,1,1]  c23       1
    s[1,1,1]  c25       -1
    MARKER    'MARKER'                 'INTORG'
    Z_FO      OBJ       1
    Z_FO      OF_constraint  1
    C25       c26       -1000000
    C25       c27       -1000000
    C25       OF_constraint  3
    C26       c28       -1000000
    C26       c29       -1000000
    C26       OF_constraint  4
    MARKER    'MARKER'                 'INTEND'
RHS
    RHS1      c0        1
    RHS1      c1        1
    RHS1      c2        1
    RHS1      c3        1
    RHS1      c8        -2999990
    RHS1      c9        -1999975
    RHS1      c10       -2999979
    RHS1      c11       -1999983
    RHS1      c12       -2999975
    RHS1      c13       -1999990
    RHS1      c14       -2999980
    RHS1      c15       -1999983
    RHS1      c26       -999992
    RHS1      c27       8
    RHS1      c28       -999992
    RHS1      c29       8
BOUNDS
 BV BND1      y[0,0,1]
 BV BND1      y[0,1,1]
 BV BND1      y[1,0,0]
 BV BND1      y[1,1,1]
 BV BND1      x[0,0,0,0]
 BV BND1      x[0,0,0,1]
 BV BND1      x[0,0,1,0]
 BV BND1      x[0,0,1,1]
 BV BND1      x[0,1,0,0]
 BV BND1      x[0,1,0,1]
 BV BND1      x[0,1,1,0]
 BV BND1      x[0,1,1,1]
 BV BND1      x[1,0,0,0]
 BV BND1      x[1,0,0,1]
 BV BND1      x[1,0,1,0]
 BV BND1      x[1,0,1,1]
 BV BND1      x[1,1,0,0]
 BV BND1      x[1,1,0,1]
 BV BND1      x[1,1,1,0]
 BV BND1      x[1,1,1,1]
 LI BND1      Z_FO      0
 BV BND1      C25     
 BV BND1      C26     
QCMATRIX   OF_constraint
    s[0,0,1]  C25       -0.5
    C25       s[0,0,1]  -0.5
    s[1,0,0]  C26       -0.5
    C26       s[1,0,0]  -0.5
ENDATA
